0 84.0 165.0
1 87.0 165.0
2 90.0 165.0
3 93.0 165.0
4 96.0 165.0
5 99.0 165.0
6 102.0 165.0
7 105.0 165.0
8 111.0 165.0
9 117.0 165.0
10 123.0 165.0
11 129.0 165.0
12 135.0 165.0
13 141.0 165.0
14 147.0 165.0
15 153.0 165.0
16 159.0 165.0
17 165.0 165.0
18 171.0 165.0
19 177.0 165.0
20 183.0 165.0
21 189.0 165.0
22 195.0 165.0
23 201.0 165.0
24 207.0 165.0
25 213.0 165.0
26 219.0 165.0
27 225.0 165.0
28 231.0 165.0
29 237.0 165.0
30 243.0 165.0
31 249.0 165.0
32 255.0 165.0
33 261.0 165.0
34 267.0 165.0
35 273.0 165.0
36 279.0 165.0
37 285.0 165.0
38 291.0 165.0
39 297.0 165.0
40 303.0 165.0
41 309.0 165.0
42 315.0 165.0
43 321.0 165.0
44 327.0 165.0
45 333.0 165.0
46 339.0 165.0
47 345.0 165.0
48 351.0 165.0
49 357.0 165.0
50 363.0 165.0
51 369.0 165.0
52 375.0 165.0
53 381.0 165.0
54 387.0 165.0
55 393.0 165.0
56 399.0 165.0
57 405.0 165.0
58 411.0 165.0
59 417.0 165.0
60 423.0 165.0
61 429.0 165.0
62 435.0 165.0
63 441.0 165.0
64 447.0 165.0
65 453.0 165.0
66 459.0 165.0
67 465.0 165.0
68 471.0 165.0
69 477.0 165.0
70 483.0 165.0
71 489.0 165.0
72 495.0 165.0
73 498.0 165.0
74 501.0 165.0
75 504.0 165.0
76 507.0 165.0
77 510.0 165.0
78 513.0 165.0
79 516.0 165.0
80 519.0 165.0
81 522.0 165.0
82 525.0 165.0
83 525.0 162.0
84 525.0 159.0
85 525.0 156.0
86 525.0 153.0
87 525.0 150.0
88 525.0 147.0
89 525.0 144.0
90 525.0 141.0
91 525.0 138.0
92 525.0 135.0
93 495.0 135.0
94 495.0 135.0
95 489.0 135.0
96 483.0 135.0
97 477.0 135.0
98 471.0 135.0
99 465.0 135.0
100 459.0 135.0
101 453.0 135.0
102 447.0 135.0
103 441.0 135.0
104 435.0 135.0
105 429.0 135.0
106 423.0 135.0
107 417.0 135.0
108 411.0 135.0
109 405.0 135.0
110 399.0 135.0
111 393.0 135.0
112 387.0 135.0
113 381.0 135.0
114 375.0 135.0
115 369.0 135.0
116 363.0 135.0
117 357.0 135.0
118 351.0 135.0
119 345.0 135.0
120 339.0 135.0
121 333.0 135.0
122 327.0 135.0
123 321.0 135.0
124 315.0 135.0
125 309.0 135.0
126 303.0 135.0
127 297.0 135.0
128 291.0 135.0
129 285.0 135.0
130 279.0 135.0
131 273.0 135.0
132 267.0 135.0
133 261.0 135.0
134 255.0 135.0
135 249.0 135.0
136 243.0 135.0
137 237.0 135.0
138 231.0 135.0
139 225.0 135.0
140 219.0 135.0
141 213.0 135.0
142 207.0 135.0
143 201.0 135.0
144 195.0 135.0
145 189.0 135.0
146 183.0 135.0
147 177.0 135.0
148 171.0 135.0
149 165.0 135.0
150 159.0 135.0
151 153.0 135.0
152 147.0 135.0
153 141.0 135.0
154 135.0 135.0
155 132.0 135.0
156 129.0 135.0
157 126.0 135.0
158 123.0 135.0
159 120.0 135.0
160 117.0 135.0
161 114.0 135.0
162 111.0 135.0
163 108.0 135.0
164 105.0 135.0
165 105.0 132.0
166 105.0 129.0
167 105.0 126.0
168 105.0 123.0
169 105.0 120.0
170 105.0 117.0
171 105.0 114.0
172 105.0 111.0
173 105.0 108.0
174 105.0 105.0
175 108.0 105.0
176 111.0 105.0
177 114.0 105.0
178 117.0 105.0
179 120.0 105.0
180 123.0 105.0
181 126.0 105.0
182 129.0 105.0
183 132.0 105.0
184 135.0 105.0
185 141.0 105.0
186 147.0 105.0
187 153.0 105.0
188 159.0 105.0
189 165.0 105.0
190 171.0 105.0
191 177.0 105.0
192 183.0 105.0
193 189.0 105.0
194 195.0 105.0
195 201.0 105.0
196 207.0 105.0
197 213.0 105.0
198 219.0 105.0
199 225.0 105.0
200 231.0 105.0
201 237.0 105.0
202 243.0 105.0
203 249.0 105.0
204 255.0 105.0
205 258.0 105.0
206 261.0 105.0
207 264.0 105.0
208 267.0 105.0
209 270.0 105.0
210 273.0 105.0
211 276.0 105.0
212 279.0 105.0
213 282.0 105.0
214 285.0 105.0
215 285.0 102.0
216 285.0 99.0
217 285.0 96.0
218 285.0 93.0
219 285.0 90.0
220 285.0 87.0
221 285.0 84.0
222 285.0 81.0
223 285.0 78.0
224 285.0 75.0
225 282.0 75.0
226 279.0 75.0
227 276.0 75.0
228 273.0 75.0
229 270.0 75.0
230 267.0 75.0
231 264.0 75.0
232 261.0 75.0
233 258.0 75.0
234 255.0 75.0
235 249.0 75.0
236 243.0 75.0
237 237.0 75.0
238 231.0 75.0
239 225.0 75.0
240 219.0 75.0
241 213.0 75.0
242 207.0 75.0
243 201.0 75.0
244 195.0 75.0
245 189.0 75.0
246 183.0 75.0
247 177.0 75.0
248 171.0 75.0
249 165.0 75.0
250 159.0 75.0
251 153.0 75.0
252 147.0 75.0
253 141.0 75.0
254 135.0 75.0
255 129.0 75.0
256 123.0 75.0
257 117.0 75.0
258 111.0 75.0
259 105.0 75.0
260 102.0 75.0
261 99.0 75.0
262 96.0 75.0
263 93.0 75.0
264 90.0 75.0
265 87.0 75.0
266 84.0 75.0
267 81.0 75.0
268 78.0 75.0
269 75.0 75.0
270 75.0 78.0
271 75.0 81.0
272 75.0 84.0
273 75.0 87.0
274 75.0 90.0
275 75.0 93.0
276 75.0 96.0
277 75.0 99.0
278 75.0 102.0
279 75.0 105.0
280 75.0 111.0
281 75.0 117.0
282 75.0 123.0
283 75.0 129.0
284 75.0 135.0
285 75.0 138.0
286 75.0 141.0
287 75.0 144.0
288 75.0 147.0
289 75.0 150.0
290 75.0 153.0
291 75.0 156.0
292 75.0 159.0
293 75.0 162.0
294 75.0 165.0
295 78.0 165.0
0 81.0 165.0
